Max_Width = 10;
Max_Height = 10;
Height = 10;
Width = 10;
grid =  [|-1, -1, -1, -3, -3, -3, -3, -3, -3, -3
 | 1,  2, -1, -3, -3, -3, -3, -3, -3, -3
 | 0,  1, -1, -1, -1, -1, -1, -1, -3, -3
 | 0,  1,  1,  1,  1,  1,  2, -1, -1, -3
 | 0,  0,  0,  0,  0,  0,  1,  2, -1, -2
 | 0,  0,  1,  1,  1,  0,  0,  1,  1,  1
 | 0,  0,  2, -1,  2,  0,  0,  0,  0,  0
 | 0,  0,  2, -1,  2,  0,  0,  0,  0,  0
 | 0,  1,  2,  2,  1,  0,  0,  0,  0,  0
 | 0,  1, -1,  1,  0,  0,  0,  0,  0,  0|]
        
        